(set-info :Origin "This instance was generated by: BanditFuzz-- an RL fuzzer for SMT solvers" )
(set-info :Author "Joe Scott, Fed Mora, Vijay Ganesh" )
(set-info :Contact "Joe Scott, joseph.scott@uwaterloo.ca")
; solvers/z3.sh
; 	time => 0.053582191467285156
; 	answer => sat
; solvers/cvc4.sh
; 	time => 0.08733916282653809
; 	answer => sat
(set-logic QF_NIRA)
(declare-const bool_0 Bool)
(declare-const bool_1 Bool)
(declare-const bool_2 Bool)
(declare-const bool_3 Bool)
(declare-const bool_4 Bool)
(declare-const int_0 Int)
(declare-const int_1 Int)
(declare-const int_2 Int)
(declare-const int_3 Int)
(declare-const int_4 Int)
(declare-const real_0 Real)
(declare-const real_1 Real)
(declare-const real_2 Real)
(declare-const real_3 Real)
(declare-const real_4 Real)
(assert (xor (>= (- int_2) (+ int_3 206345641)) (xor (=> true bool_3) (xor false bool_3))))
(assert (<= (* (+ (- 20856915) int_4) (+ int_4 int_4)) (/ (- int_2 (- 441959096)) (- int_4))))
(assert (<= (/ (* 125442670 (- 266450469)) (+ (- 440986558) int_4)) (- (* (- 202042685) (- 606337781)))))
(assert (=> (or (and true true) (>= int_0 264001460)) (not (xor bool_2 bool_1))))
(assert (<= (/ (/ (- 898613255) (- 296935505)) (- int_4)) (- (- int_0 (- 612261679)))))
(check-sat)
(exit)
